1633801
4,47,13,54,1,12,32,56,19,49,23,60,29,25,30,41,64,38,67,7,43,46,34,55,26,66,11,6,5,40,42,24,61,3,21,31,22,52,33,57,18,10,14,44,53,37,62,39,51,35,68,50,28,16,63,20,65,45,27,17,9,58,15,8,36,59,2,48